(set-info :origin "SVCOMP13 benchmarks generated by Arie Gurfinkel")
(set-info :status sat)
(set-logic HORN)
(declare-fun cp-rel-bb.i.i.i
             (Real Real Real Real Real Real Real Real Real Real Real Real)
             Bool)
(declare-fun cp-rel-__UFO__0
             (Real Real Real Real Real Real Real Real Real Real Real Real)
             Bool)
(declare-fun cp-rel-UnifiedReturnBlock () Bool)
(declare-fun cp-rel-_L___0.i.i.i.i.i () Bool)
(assert |cp-rel-_L___0.i.i.i.i.i|)
(assert (forall ((?A Real) (?B Real) (?C Real) (?D Real) (?E Real) (?F Real) (?G Real) (?H Real) (?I Real) (?J Real) (?K Real) (?L Real) (?M Bool) )(let (($x453700 (|cp-rel-bb.i.i.i| ?A ?B ?C ?D ?E ?F ?G ?H ?I ?J ?K ?L)))
(let (($x402218 (= ?M true)))
(let (($x223112 (and |cp-rel-_L___0.i.i.i.i.i| (<= ?L 1.0) (>= ?K 1.0) (<= ?K 1.0) (>= ?J 1.0) (<= ?J 1.0) (>= ?I 1.0) (<= ?I 1.0) (>= ?H 1.0) (<= ?H 1.0) (>= ?G 1.0) (<= ?G 1.0) (>= ?F 0.0) (<= ?F 0.0) (>= ?E 0.0) (<= ?E 0.0) (>= ?D 0.0) (<= ?D 0.0) (>= ?C 1.0) (<= ?C 1.0) (>= ?B 1.0) (<= ?B 1.0) (>= ?A 0.0) (<= ?A 0.0) $x402218 (>= ?L 1.0))))
(=> $x223112 $x453700)))))
)
(assert (forall ((?A Real) (?B Real) (?C Real) (?D Real) (?E Real) (?F Real) (?G Real) (?H Real) (?I Real) (?J Real) (?K Real) (?L Real) (?M Real) (?N Real) (?O Real) (?P Real) (?Q Real) (?R Real) (?S Real) (?T Real) (?U Real) (?V Real) (?W Real) (?X Real) (?Y Bool) (?Z Bool) (?A1 Bool) (?B1 Bool) (?C1 Bool) (?D1 Bool) (?E1 Bool) (?F1 Bool) (?G1 Bool) (?H1 Bool) (?I1 Bool) (?J1 Bool) (?K1 Bool) (?L1 Bool) (?M1 Bool) (?N1 Bool) (?O1 Bool) (?P1 Bool) (?Q1 Bool) (?R1 Bool) (?S1 Bool) (?T1 Bool) (?U1 Bool) (?V1 Bool) (?W1 Bool) (?X1 Real) (?Y1 Bool) (?Z1 Bool) (?A2 Bool) (?B2 Bool) (?C2 Bool) (?D2 Bool) (?E2 Bool) (?F2 Bool) (?G2 Bool) (?H2 Bool) (?I2 Bool) (?J2 Bool) (?K2 Bool) (?L2 Bool) (?M2 Bool) (?N2 Bool) (?O2 Bool) (?P2 Bool) (?Q2 Bool) (?R2 Bool) (?S2 Bool) (?T2 Bool) (?U2 Bool) (?V2 Bool) (?W2 Bool) (?X2 Bool) (?Y2 Bool) (?Z2 Bool) (?A3 Bool) (?B3 Bool) (?C3 Bool) (?D3 Bool) (?E3 Real) (?F3 Bool) (?G3 Bool) (?H3 Bool) (?I3 Bool) (?J3 Bool) (?K3 Bool) (?L3 Bool) (?M3 Bool) (?N3 Bool) (?O3 Bool) (?P3 Bool) (?Q3 Bool) (?R3 Bool) (?S3 Bool) (?T3 Bool) (?U3 Bool) (?V3 Bool) (?W3 Bool) (?X3 Bool) (?Y3 Bool) (?Z3 Bool) (?A4 Bool) (?B4 Bool) (?C4 Bool) (?D4 Bool) (?E4 Bool) (?F4 Bool) (?G4 Bool) (?H4 Bool) (?I4 Bool) (?J4 Bool) (?K4 Bool) (?L4 Bool) (?M4 Bool) (?N4 Bool) (?O4 Bool) (?P4 Bool) (?Q4 Bool) (?R4 Bool) (?S4 Bool) (?T4 Bool) (?U4 Bool) (?V4 Bool) (?W4 Bool) (?X4 Bool) (?Y4 Bool) (?Z4 Bool) (?A5 Bool) (?B5 Bool) (?C5 Bool) (?D5 Bool) (?E5 Bool) (?F5 Bool) (?G5 Real) (?H5 Bool) (?I5 Bool) (?J5 Bool) (?K5 Bool) (?L5 Bool) (?M5 Bool) (?N5 Bool) (?O5 Bool) (?P5 Bool) (?Q5 Bool) (?R5 Bool) (?S5 Bool) (?T5 Bool) (?U5 Bool) (?V5 Bool) (?W5 Bool) (?X5 Bool) (?Y5 Bool) (?Z5 Bool) (?A6 Bool) (?B6 Bool) (?C6 Bool) (?D6 Bool) (?E6 Bool) (?F6 Bool) (?G6 Bool) (?H6 Bool) (?I6 Bool) (?J6 Bool) (?K6 Bool) (?L6 Bool) (?M6 Bool) (?N6 Bool) (?O6 Bool) (?P6 Bool) (?Q6 Bool) (?R6 Bool) (?S6 Bool) (?T6 Bool) (?U6 Bool) (?V6 Bool) (?W6 Bool) (?X6 Bool) (?Y6 Bool) (?Z6 Bool) (?A7 Bool) (?B7 Bool) (?C7 Bool) (?D7 Bool) (?E7 Bool) (?F7 Bool) (?G7 Bool) (?H7 Bool) (?I7 Bool) (?J7 Bool) (?K7 Bool) (?L7 Bool) (?M7 Bool) (?N7 Bool) (?O7 Bool) (?P7 Real) (?Q7 Real) (?R7 Real) (?S7 Real) (?T7 Real) (?U7 Bool) (?V7 Bool) (?W7 Bool) (?X7 Bool) (?Y7 Bool) (?Z7 Bool) (?A8 Bool) (?B8 Bool) (?C8 Bool) (?D8 Bool) (?E8 Bool) (?F8 Bool) (?G8 Bool) (?H8 Bool) (?I8 Real) (?J8 Bool) (?K8 Bool) (?L8 Bool) (?M8 Bool) (?N8 Bool) (?O8 Bool) (?P8 Bool) (?Q8 Bool) (?R8 Bool) (?S8 Bool) (?T8 Bool) (?U8 Bool) (?V8 Bool) (?W8 Bool) (?X8 Bool) (?Y8 Bool) (?Z8 Bool) (?A9 Bool) (?B9 Bool) (?C9 Bool) (?D9 Bool) (?E9 Bool) (?F9 Bool) (?G9 Bool) (?H9 Bool) (?I9 Bool) (?J9 Bool) (?K9 Bool) (?L9 Bool) (?M9 Bool) (?N9 Bool) (?O9 Bool) (?P9 Bool) (?Q9 Bool) (?R9 Bool) (?S9 Bool) (?T9 Real) (?U9 Bool) (?V9 Bool) (?W9 Bool) (?X9 Bool) (?Y9 Bool) (?Z9 Bool) (?A10 Bool) (?B10 Bool) (?C10 Bool) (?D10 Bool) (?E10 Bool) (?F10 Bool) (?G10 Bool) (?H10 Bool) (?I10 Bool) (?J10 Bool) (?K10 Bool) (?L10 Bool) (?M10 Bool) (?N10 Bool) (?O10 Bool) (?P10 Bool) (?Q10 Bool) (?R10 Bool) (?S10 Bool) (?T10 Bool) (?U10 Bool) (?V10 Bool) (?W10 Bool) (?X10 Bool) (?Y10 Bool) (?Z10 Bool) (?A11 Bool) (?B11 Bool) (?C11 Real) (?D11 Bool) (?E11 Bool) (?F11 Bool) (?G11 Bool) (?H11 Bool) (?I11 Real) (?J11 Bool) (?K11 Real) (?L11 Bool) (?M11 Bool) (?N11 Bool) (?O11 Bool) (?P11 Bool) (?Q11 Bool) (?R11 Bool) (?S11 Bool) (?T11 Bool) (?U11 Real) (?V11 Real) (?W11 Real) (?X11 Real) (?Y11 Real) (?Z11 Bool) (?A12 Bool) (?B12 Bool) (?C12 Bool) (?D12 Bool) (?E12 Bool) (?F12 Bool) (?G12 Bool) (?H12 Bool) (?I12 Bool) (?J12 Bool) (?K12 Bool) (?L12 Bool) (?M12 Bool) (?N12 Bool) (?O12 Bool) (?P12 Bool) (?Q12 Bool) (?R12 Real) (?S12 Real) (?T12 Bool) (?U12 Bool) (?V12 Bool) (?W12 Bool) (?X12 Bool) (?Y12 Bool) (?Z12 Bool) (?A13 Bool) (?B13 Bool) (?C13 Bool) (?D13 Bool) (?E13 Bool) (?F13 Bool) (?G13 Bool) (?H13 Real) (?I13 Real) (?J13 Real) (?K13 Real) (?L13 Real) (?M13 Real) (?N13 Real) (?O13 Real) (?P13 Real) (?Q13 Bool) (?R13 Real) (?S13 Real) (?T13 Bool) (?U13 Real) (?V13 Bool) (?W13 Real) (?X13 Bool) (?Y13 Bool) (?Z13 Bool) (?A14 Bool) (?B14 Bool) (?C14 Bool) (?D14 Bool) (?E14 Bool) (?F14 Bool) (?G14 Bool) (?H14 Real) (?I14 Real) (?J14 Bool) (?K14 Bool) (?L14 Real) (?M14 Bool) (?N14 Bool) (?O14 Bool) (?P14 Bool) (?Q14 Bool) (?R14 Bool) (?S14 Real) (?T14 Bool) (?U14 Bool) (?V14 Bool) (?W14 Bool) (?X14 Bool) (?Y14 Bool) (?Z14 Bool) (?A15 Real) (?B15 Bool) (?C15 Bool) (?D15 Bool) (?E15 Bool) (?F15 Bool) (?G15 Bool) (?H15 Bool) (?I15 Bool) (?J15 Bool) (?K15 Bool) (?L15 Bool) (?M15 Bool) (?N15 Bool) (?O15 Bool) (?P15 Real) (?Q15 Bool) (?R15 Bool) (?S15 Real) (?T15 Bool) (?U15 Bool) (?V15 Real) (?W15 Bool) (?X15 Real) (?Y15 Bool) (?Z15 Bool) (?A16 Bool) (?B16 Bool) (?C16 Bool) (?D16 Bool) (?E16 Bool) )(let (($x329677 (|cp-rel-bb.i.i.i| ?M ?N ?O ?P ?Q ?R ?S ?T ?U ?V ?W ?X)))
(let (($x382966 (or (not ?U1) (and ?K1 ?V1 ?W1 (<= ?X1 0.0) (>= ?X1 0.0)) (and ?N1 ?Y1 ?Z1 (<= ?X1 ?I) (>= ?X1 ?I)) (and ?P1 ?A2 ?B2 (<= ?X1 ?J) (>= ?X1 ?J)) (and ?S1 ?C2 (not ?D2) (<= ?X1 0.0) (>= ?X1 0.0)))))
(let (($x467355 (or (not ?U1) (and ?V1 (not ?Y1) (not ?A2) (not ?C2)) (and ?Y1 (not ?V1) (not ?A2) (not ?C2)) (and ?A2 (not ?V1) (not ?Y1) (not ?C2)) (and ?C2 (not ?V1) (not ?Y1) (not ?A2)))))
(let (($x274555 (or (not ?B3) (and ?M2 ?C3 ?D3 (<= ?E3 0.0) (>= ?E3 0.0)) (and ?P2 ?F3 ?G3 (<= ?E3 ?E) (>= ?E3 ?E)) (and ?R2 ?H3 ?I3 (<= ?E3 0.0) (>= ?E3 0.0)) (and ?W2 ?J3 ?K3 (<= ?E3 ?F) (>= ?E3 ?F)) (and ?Z2 ?L3 ?M3 (<= ?E3 0.0) (>= ?E3 0.0)))))
(let (($x299435 (or (not ?B3) (and ?C3 (not ?F3) (not ?H3) (not ?J3) (not ?L3)) (and ?F3 (not ?C3) (not ?H3) (not ?J3) (not ?L3)) (and ?H3 (not ?C3) (not ?F3) (not ?J3) (not ?L3)) (and ?J3 (not ?C3) (not ?F3) (not ?H3) (not ?L3)) (and ?L3 (not ?C3) (not ?F3) (not ?H3) (not ?J3)))))
(let (($x159495 (or (not ?N3) (and ?B3 ?O3 ?P3) (and ?M2 ?Q3 (not ?D3)) (and ?P2 ?R3 (not ?G3)) (and ?R2 ?S3 (not ?I3)) (and ?W2 ?T3 (not ?K3)) (and ?Z2 ?U3 (not ?M3)) (and ?K1 ?V3 (not ?W1)) (and ?N1 ?W3 (not ?Z1)) (and ?P1 ?X3 (not ?B2)) (and ?S1 ?Y3 ?D2))))
(let (($x478091 (not ?X3)))
(let (($x265100 (not ?W3)))
(let (($x297615 (not ?V3)))
(let (($x153933 (not ?U3)))
(let (($x158981 (not ?T3)))
(let (($x267038 (not ?S3)))
(let (($x360807 (not ?R3)))
(let (($x338831 (not ?Q3)))
(let (($x352662 (not ?O3)))
(let (($x114720 (or (not ?N3) (and ?O3 $x338831 $x360807 $x267038 $x158981 $x153933 $x297615 $x265100 $x478091 (not ?Y3)) (and ?Q3 $x352662 $x360807 $x267038 $x158981 $x153933 $x297615 $x265100 $x478091 (not ?Y3)) (and ?R3 $x352662 $x338831 $x267038 $x158981 $x153933 $x297615 $x265100 $x478091 (not ?Y3)) (and ?S3 $x352662 $x338831 $x360807 $x158981 $x153933 $x297615 $x265100 $x478091 (not ?Y3)) (and ?T3 $x352662 $x338831 $x360807 $x267038 $x153933 $x297615 $x265100 $x478091 (not ?Y3)) (and ?U3 $x352662 $x338831 $x360807 $x267038 $x158981 $x297615 $x265100 $x478091 (not ?Y3)) (and ?V3 $x352662 $x338831 $x360807 $x267038 $x158981 $x153933 $x265100 $x478091 (not ?Y3)) (and ?W3 $x352662 $x338831 $x360807 $x267038 $x158981 $x153933 $x297615 $x478091 (not ?Y3)) (and ?X3 $x352662 $x338831 $x360807 $x267038 $x158981 $x153933 $x297615 $x265100 (not ?Y3)) (and ?Y3 $x352662 $x338831 $x360807 $x267038 $x158981 $x153933 $x297615 $x265100 $x478091))))
(let (($x477456 (or (not ?Z3) (and ?B3 ?A4 (not ?P3)) (and ?U1 ?B4 (not ?G2)))))
(let (($x192087 (or (not ?D5) (and ?H4 ?E5 (not ?F5) (<= ?G5 0.0) (>= ?G5 0.0)) (and ?S4 ?H5 ?I5 (<= ?G5 ?K) (>= ?G5 ?K)) (and ?V4 ?J5 (not ?K5) (<= ?G5 0.0) (>= ?G5 0.0)))))
(let (($x133710 (or (not ?D5) (and ?E5 (not ?H5) (not ?J5)) (and ?H5 (not ?E5) (not ?J5)) (and ?J5 (not ?E5) (not ?H5)))))
(let (($x319114 (or (not ?U5) (and ?O5 ?V5 ?W5) (and ?F4 ?X5 ?R4) (and ?L5 ?Y5 ?Z5) (and ?C4 ?A6 ?O4))))
(let (($x274741 (or (not ?U5) (and ?V5 (not ?X5) (not ?Y5) (not ?A6)) (and ?X5 (not ?V5) (not ?Y5) (not ?A6)) (and ?Y5 (not ?V5) (not ?X5) (not ?A6)) (and ?A6 (not ?V5) (not ?X5) (not ?Y5)))))
(let (($x111134 (or (not ?B6) (and ?O5 ?C6 (not ?W5)) (and ?A5 ?D6 (not ?Q5)) (and ?P4 ?E6 (not ?C5)) (and ?L5 ?F6 (not ?Z5)) (and ?X4 ?G6 (not ?N5)) (and ?M4 ?H6 (not ?Z4)))))
(let (($x162519 (or (not ?B6) (and ?C6 (not ?D6) (not ?E6) (not ?F6) (not ?G6) (not ?H6)) (and ?D6 (not ?C6) (not ?E6) (not ?F6) (not ?G6) (not ?H6)) (and ?E6 (not ?C6) (not ?D6) (not ?F6) (not ?G6) (not ?H6)) (and ?F6 (not ?C6) (not ?D6) (not ?E6) (not ?G6) (not ?H6)) (and ?G6 (not ?C6) (not ?D6) (not ?E6) (not ?F6) (not ?H6)) (and ?H6 (not ?C6) (not ?D6) (not ?E6) (not ?F6) (not ?G6)))))
(let (($x135030 (or (not ?W6) (and ?I6 ?X6 (not ?Y6)) (and ?L6 ?Z6 (not ?A7)))))
(let (($x481792 (>= ?T7 ?E)))
(let (($x361532 (<= ?T7 ?E)))
(let (($x254312 (>= ?S7 ?I)))
(let (($x323351 (<= ?S7 ?I)))
(let (($x131636 (>= ?R7 ?J)))
(let (($x103322 (<= ?R7 ?J)))
(let (($x271442 (>= ?P7 ?K)))
(let (($x447667 (<= ?P7 ?K)))
(let (($x259419 (>= ?T7 1.0)))
(let (($x289879 (<= ?T7 1.0)))
(let (($x417405 (>= ?P7 ?Q7)))
(let (($x127764 (<= ?P7 ?Q7)))
(let (($x316859 (and ?L6 ?V7 ?A7 $x127764 $x417405 (<= ?R7 0.0) (>= ?R7 0.0) $x323351 $x254312 $x289879 $x259419)))
(let (($x205186 (and ?I6 ?U7 ?Y6 $x127764 $x417405 $x103322 $x131636 (<= ?S7 0.0) (>= ?S7 0.0) $x289879 $x259419)))
(let (($x395508 (or (not ?N7) (and ?W6 ?O7 $x127764 $x417405 $x103322 $x131636 $x323351 $x254312 $x289879 $x259419) $x205186 $x316859 (and ?D5 ?W7 ?T5 $x447667 $x271442 $x103322 $x131636 $x323351 $x254312 $x361532 $x481792) (and ?H4 ?X7 ?F5 $x447667 $x271442 $x103322 $x131636 $x323351 $x254312 $x361532 $x481792) (and ?S4 ?Y7 (not ?I5) $x447667 $x271442 $x103322 $x131636 $x323351 $x254312 $x361532 $x481792) (and ?V4 ?Z7 ?K5 $x447667 $x271442 $x103322 $x131636 $x323351 $x254312 $x361532 $x481792))))
(let (($x390625 (not ?Y7)))
(let (($x275934 (not ?X7)))
(let (($x287346 (not ?W7)))
(let (($x303093 (not ?V7)))
(let (($x234567 (not ?U7)))
(let (($x390200 (not ?O7)))
(let (($x155842 (or (not ?N7) (and ?O7 $x234567 $x303093 $x287346 $x275934 $x390625 (not ?Z7)) (and ?U7 $x390200 $x303093 $x287346 $x275934 $x390625 (not ?Z7)) (and ?V7 $x390200 $x234567 $x287346 $x275934 $x390625 (not ?Z7)) (and ?W7 $x390200 $x234567 $x303093 $x275934 $x390625 (not ?Z7)) (and ?X7 $x390200 $x234567 $x303093 $x287346 $x390625 (not ?Z7)) (and ?Y7 $x390200 $x234567 $x303093 $x287346 $x275934 (not ?Z7)) (and ?Z7 $x390200 $x234567 $x303093 $x287346 $x275934 $x390625))))
(let (($x125194 (or (not ?G8) (and ?K7 ?H8 (<= ?I8 1.0) (>= ?I8 1.0)) (and ?U6 ?J8 (not ?M7) (<= ?I8 ?B) (>= ?I8 ?B)) (and ?H7 ?K8 (<= ?I8 0.0) (>= ?I8 0.0)) (and ?S6 ?L8 (not ?J7) (<= ?I8 ?B) (>= ?I8 ?B)))))
(let (($x289115 (or (not ?G8) (and ?H8 (not ?J8) (not ?K8) (not ?L8)) (and ?J8 (not ?H8) (not ?K8) (not ?L8)) (and ?K8 (not ?H8) (not ?J8) (not ?L8)) (and ?L8 (not ?H8) (not ?J8) (not ?K8)))))
(let (($x298940 (or (not ?C9) (and ?U8 ?D9 ?E9) (and ?Q6 ?F9 ?G7) (and ?R8 ?G9 ?H9) (and ?N6 ?I9 ?D7))))
(let (($x136567 (or (not ?C9) (and ?D9 (not ?F9) (not ?G9) (not ?I9)) (and ?F9 (not ?D9) (not ?G9) (not ?I9)) (and ?G9 (not ?D9) (not ?F9) (not ?I9)) (and ?I9 (not ?D9) (not ?F9) (not ?G9)))))
(let (($x200593 (or (not ?J9) (and ?U8 ?K9 (not ?E9)) (and ?D8 ?L9 (not ?W8)) (and ?E7 ?M9 (not ?F8)) (and ?R8 ?N9 (not ?H9)) (and ?A8 ?O9 (not ?T8)) (and ?B7 ?P9 (not ?C8)))))
(let (($x305083 (or (not ?J9) (and ?K9 (not ?L9) (not ?M9) (not ?N9) (not ?O9) (not ?P9)) (and ?L9 (not ?K9) (not ?M9) (not ?N9) (not ?O9) (not ?P9)) (and ?M9 (not ?K9) (not ?L9) (not ?N9) (not ?O9) (not ?P9)) (and ?N9 (not ?K9) (not ?L9) (not ?M9) (not ?O9) (not ?P9)) (and ?O9 (not ?K9) (not ?L9) (not ?M9) (not ?N9) (not ?P9)) (and ?P9 (not ?K9) (not ?L9) (not ?M9) (not ?N9) (not ?O9)))))
(let (($x319914 (or (not ?Q9) (and ?M8 ?R9 ?S9 (<= ?T9 0.0) (>= ?T9 0.0)) (and ?X8 ?U9 ?V9 (<= ?T9 ?L) (>= ?T9 ?L)) (and ?A9 ?W9 (not ?X9) (<= ?T9 0.0) (>= ?T9 0.0)))))
(let (($x134644 (or (not ?Q9) (and ?R9 (not ?U9) (not ?W9)) (and ?U9 (not ?R9) (not ?W9)) (and ?W9 (not ?R9) (not ?U9)))))
(let (($x475959 (or (not ?A11) (and ?M10 ?B11 (<= ?C11 1.0) (>= ?C11 1.0)) (and ?A10 ?D11 (not ?O10) (<= ?C11 ?B) (>= ?C11 ?B)) (and ?J10 ?E11 (<= ?C11 0.0) (>= ?C11 0.0)) (and ?Y9 ?F11 (not ?L10) (<= ?C11 ?B) (>= ?C11 ?B)))))
(let (($x416313 (or (not ?A11) (and ?B11 (not ?D11) (not ?E11) (not ?F11)) (and ?D11 (not ?B11) (not ?E11) (not ?F11)) (and ?E11 (not ?B11) (not ?D11) (not ?F11)) (and ?F11 (not ?B11) (not ?D11) (not ?E11)))))
(let (($x358390 (or (not ?G11) (and ?S10 ?H11 (<= ?I11 1.0) (>= ?I11 1.0)) (and ?E10 ?J11 (not ?U10) (<= ?I11 ?K11) (>= ?I11 ?K11)) (and ?P10 ?L11 (<= ?I11 0.0) (>= ?I11 0.0)) (and ?C10 ?M11 (not ?R10) (<= ?I11 ?K11) (>= ?I11 ?K11)))))
(let (($x201561 (or (not ?G11) (and ?H11 (not ?J11) (not ?L11) (not ?M11)) (and ?J11 (not ?H11) (not ?L11) (not ?M11)) (and ?L11 (not ?H11) (not ?J11) (not ?M11)) (and ?M11 (not ?H11) (not ?J11) (not ?L11)))))
(let (($x380215 (or (not ?N11) (and ?V10 ?O11 (not ?P11)) (and ?Y10 ?Q11 (not ?R11)))))
(let (($x308595 (>= ?Y11 ?F)))
(let (($x208924 (<= ?Y11 ?F)))
(let (($x418684 (>= ?X11 ?S7)))
(let (($x312905 (<= ?X11 ?S7)))
(let (($x327760 (>= ?W11 ?R7)))
(let (($x487538 (<= ?W11 ?R7)))
(let (($x435381 (>= ?U11 ?L)))
(let (($x127440 (<= ?U11 ?L)))
(let (($x298721 (>= ?Y11 1.0)))
(let (($x335236 (<= ?Y11 1.0)))
(let (($x113934 (>= ?U11 ?V11)))
(let (($x343157 (<= ?U11 ?V11)))
(let (($x323184 (and ?Y10 ?A12 ?R11 $x343157 $x113934 (<= ?W11 0.0) (>= ?W11 0.0) $x312905 $x418684 $x335236 $x298721)))
(let (($x339680 (and ?V10 ?Z11 ?P11 $x343157 $x113934 $x487538 $x327760 (<= ?X11 0.0) (>= ?X11 0.0) $x335236 $x298721)))
(let (($x394385 (or (not ?S11) (and ?N11 ?T11 $x343157 $x113934 $x487538 $x327760 $x312905 $x418684 $x335236 $x298721) $x339680 $x323184 (and ?Q9 ?B12 ?I10 $x127440 $x435381 $x487538 $x327760 $x312905 $x418684 $x208924 $x308595) (and ?M8 ?C12 (not ?S9) $x127440 $x435381 $x487538 $x327760 $x312905 $x418684 $x208924 $x308595) (and ?X8 ?D12 (not ?V9) $x127440 $x435381 $x487538 $x327760 $x312905 $x418684 $x208924 $x308595) (and ?A9 ?E12 ?X9 $x127440 $x435381 $x487538 $x327760 $x312905 $x418684 $x208924 $x308595))))
(let (($x132509 (not ?D12)))
(let (($x489209 (not ?C12)))
(let (($x282426 (not ?B12)))
(let (($x209829 (not ?A12)))
(let (($x215678 (not ?Z11)))
(let (($x435891 (not ?T11)))
(let (($x136537 (or (not ?S11) (and ?T11 $x215678 $x209829 $x282426 $x489209 $x132509 (not ?E12)) (and ?Z11 $x435891 $x209829 $x282426 $x489209 $x132509 (not ?E12)) (and ?A12 $x435891 $x215678 $x282426 $x489209 $x132509 (not ?E12)) (and ?B12 $x435891 $x215678 $x209829 $x489209 $x132509 (not ?E12)) (and ?C12 $x435891 $x215678 $x209829 $x282426 $x132509 (not ?E12)) (and ?D12 $x435891 $x215678 $x209829 $x282426 $x489209 (not ?E12)) (and ?E12 $x435891 $x215678 $x209829 $x282426 $x489209 $x132509))))
(let (($x442070 (or (not ?K12) (and ?F12 ?L12 (not ?M12)) (and ?I12 ?N12 (not ?O12)))))
(let (($x99440 (and ?I12 ?U12 ?O12 (<= ?R12 0.0) (>= ?R12 0.0) (<= ?S12 ?X11) (>= ?S12 ?X11))))
(let (($x212491 (and ?F12 ?T12 ?M12 (<= ?R12 ?W11) (>= ?R12 ?W11) (<= ?S12 0.0) (>= ?S12 0.0))))
(let (($x372658 (and ?K12 ?Q12 (<= ?R12 ?W11) (>= ?R12 ?W11) (<= ?S12 ?X11) (>= ?S12 ?X11))))
(let (($x303586 (or (not ?P12) (and ?Q12 (not ?T12) (not ?U12)) (and ?T12 (not ?Q12) (not ?U12)) (and ?U12 (not ?Q12) (not ?T12)))))
(let (($x248690 (or (not ?A13) (and ?V12 ?B13 (not ?C13)) (and ?Y12 ?D13 (not ?E13)))))
(let (($x107217 (>= ?P13 ?U11)))
(let (($x151285 (<= ?P13 ?U11)))
(let (($x357244 (>= ?O13 ?P7)))
(let (($x170351 (<= ?O13 ?P7)))
(let (($x288592 (>= ?N13 ?R12)))
(let (($x432084 (<= ?N13 ?R12)))
(let (($x325106 (>= ?M13 ?S12)))
(let (($x468954 (<= ?M13 ?S12)))
(let (($x281391 (>= ?J13 1.0)))
(let (($x237142 (<= ?J13 1.0)))
(let (($x345398 (>= ?I13 ?C)))
(let (($x297834 (<= ?I13 ?C)))
(let (($x367733 (>= ?H13 ?B)))
(let (($x255723 (<= ?H13 ?B)))
(let (($x404448 (and ?Y12 ?Y13 ?E13 $x255723 $x367733 $x297834 $x345398 $x237142 $x281391 (<= ?K13 ?T7) (>= ?K13 ?T7) (<= ?L13 0.0) (>= ?L13 0.0) $x468954 $x325106 $x432084 $x288592 $x170351 $x357244 $x151285 $x107217)))
(let (($x337594 (and ?V12 ?X13 ?C13 $x255723 $x367733 $x297834 $x345398 $x237142 $x281391 (<= ?K13 0.0) (>= ?K13 0.0) (<= ?L13 ?Y11) (>= ?L13 ?Y11) $x468954 $x325106 $x432084 $x288592 $x170351 $x357244 $x151285 $x107217)))
(let (($x344303 (>= ?P13 ?L)))
(let (($x351760 (<= ?P13 ?L)))
(let (($x411718 (>= ?O13 ?K)))
(let (($x139623 (<= ?O13 ?K)))
(let (($x336851 (>= ?N13 ?J)))
(let (($x272166 (<= ?N13 ?J)))
(let (($x214921 (>= ?M13 ?I)))
(let (($x273881 (<= ?M13 ?I)))
(let (($x252031 (>= ?L13 ?F)))
(let (($x477389 (<= ?L13 ?F)))
(let (($x319125 (>= ?K13 ?E)))
(let (($x374521 (<= ?K13 ?E)))
(let (($x175114 (>= ?J13 ?S13)))
(let (($x271342 (<= ?J13 ?S13)))
(let (($x407357 (and ?G8 ?V13 (<= ?H13 ?I8) (>= ?H13 ?I8) (<= ?I13 ?W13) (>= ?I13 ?W13) $x271342 $x175114 $x374521 $x319125 $x477389 $x252031 $x273881 $x214921 $x272166 $x336851 $x139623 $x411718 $x351760 $x344303)))
(let (($x121756 (and ?G11 ?T13 (<= ?H13 ?I11) (>= ?H13 ?I11) (<= ?I13 ?U13) (>= ?I13 ?U13) $x271342 $x175114 $x374521 $x319125 $x477389 $x252031 $x273881 $x214921 $x272166 $x336851 $x139623 $x411718 $x351760 $x344303)))
(let (($x181544 (and ?A11 ?Q13 (<= ?H13 ?C11) (>= ?H13 ?C11) (<= ?I13 ?R13) (>= ?I13 ?R13) $x271342 $x175114 $x374521 $x319125 $x477389 $x252031 $x273881 $x214921 $x272166 $x336851 $x139623 $x411718 $x351760 $x344303)))
(let (($x168090 (and ?A13 ?G13 $x255723 $x367733 $x297834 $x345398 $x237142 $x281391 (<= ?K13 ?T7) (>= ?K13 ?T7) (<= ?L13 ?Y11) (>= ?L13 ?Y11) $x468954 $x325106 $x432084 $x288592 $x170351 $x357244 $x151285 $x107217)))
(let (($x299551 (or (not ?F13) (and ?G13 (not ?Q13) (not ?T13) (not ?V13) (not ?X13) (not ?Y13)) (and ?Q13 (not ?G13) (not ?T13) (not ?V13) (not ?X13) (not ?Y13)) (and ?T13 (not ?G13) (not ?Q13) (not ?V13) (not ?X13) (not ?Y13)) (and ?V13 (not ?G13) (not ?Q13) (not ?T13) (not ?X13) (not ?Y13)) (and ?X13 (not ?G13) (not ?Q13) (not ?T13) (not ?V13) (not ?Y13)) (and ?Y13 (not ?G13) (not ?Q13) (not ?T13) (not ?V13) (not ?X13)))))
(let (($x484671 (and ?F13 ?K14 (not ?B14) (<= ?H14 0.0) (>= ?H14 0.0) (<= ?I14 ?H) (>= ?I14 ?H))))
(let (($x280253 (and ?Z13 ?J14 (not ?E14) (<= ?H14 ?G) (>= ?H14 ?G) (<= ?I14 0.0) (>= ?I14 0.0))))
(let (($x198099 (and ?C14 ?G14 (<= ?H14 ?G) (>= ?H14 ?G) (<= ?I14 ?H) (>= ?I14 ?H))))
(let (($x460005 (or (not ?F14) (and ?G14 (not ?J14) (not ?K14)) (and ?J14 (not ?G14) (not ?K14)) (and ?K14 (not ?G14) (not ?J14)))))
(let (($x364957 (|cp-rel-bb.i.i.i| ?A ?B ?C ?D ?E ?F ?G ?H ?I ?J ?K ?L)))
(let (($x279119 (and $x364957 (= ?E14 (or ?E16 ?Y15)) (= ?E16 (or ?C16 ?D16)) (= ?D16 (= ?H 0.0)) (= ?C16 (not (= ?I13 2.0))) (= ?B14 (or ?B16 ?Y15)) (= ?B16 (or ?Z15 ?A16)) (= ?A16 (= ?G 0.0)) (= ?Z15 (not (= ?I13 1.0))) (= ?Y15 (= ?J13 0.0)) (= ?E13 (= ?C 3.0)) (= ?C13 (= ?C 1.0)) (= ?X12 (not (<= 3.0 ?C))) (= ?O12 (= ?C 2.0)) (= ?M12 (= ?C 1.0)) (= ?H12 (not (<= 2.0 ?C))) (= ?U13 (+ ?X15 ?C)) (= ?X15 (ite ?W15 1.0 (~ 1.0))) (= ?W15 (= ?I11 1.0)) (= ?R13 (+ ?V15 ?C)) (= ?V15 (ite ?U15 1.0 (~ 1.0))) (= ?U15 (= ?C11 1.0)) (= ?R11 (= ?C 2.0)) (= ?P11 (= ?C 1.0)) (= ?X10 (not (<= 2.0 ?C))) (= ?V11 (ite ?T15 0.0 ?L)) (= ?T15 (= ?C 1.0)) (= ?U10 (= ?C 0.0)) (= ?R10 (= ?C 4.0)) (= ?O10 (= ?C 0.0)) (= ?L10 (= ?C 4.0)) (= ?I10 (= ?T9 0.0)) (= ?K11 (ite ?P6 1.0 0.0)) (= ?X9 (not (<= ?S15 2.0))) (= ?S15 (+ (~ 2.0) ?C)) (= ?V9 (= ?C 1.0)) (= ?E9 (or ?P14 ?R15)) (= ?R15 (not (<= 4.0 ?C))) (= ?H9 (or ?P14 ?Q15)) (= ?Q15 (not (<= ?C 2.0))) (= ?Z8 (not (<= 2.0 ?C))) (= ?S9 (= ?C 0.0)) (= ?W13 (+ ?P15 ?C)) (= ?P15 (ite ?O15 1.0 (~ 1.0))) (= ?O15 (= ?I8 1.0)) (= ?W8 (or ?O14 ?N15)) (= ?N15 (not (<= 3.0 ?C))) (= ?T8 (or ?O14 ?M15)) (= ?M15 (not (<= ?C 1.0))) (= ?O8 (not (<= 1.0 ?C))) (= ?F8 (and ?K15 ?L15)) (= ?L15 (or ?N14 ?J15)) (= ?K15 (or ?M14 ?J15)) (= ?J15 (not (<= 2.0 ?C))) (= ?C8 (and ?H15 ?I15)) (= ?I15 (or ?N14 ?G15)) (= ?H15 (or ?M14 ?G15)) (= ?G15 (not (<= ?C 0.0))) (= ?M7 (= ?C 0.0)) (= ?J7 (= ?C 4.0)) (= ?G7 (= ?C 0.0)) (= ?D7 (= ?C 4.0)) (= ?A7 (= ?C 2.0)) (= ?Y6 (= ?C 1.0)) (= ?P6 (= ?B 0.0)) (= ?K6 (not (<= 2.0 ?C))) (= ?Q7 (ite ?F15 0.0 ?K)) (= ?F15 (= ?C 2.0)) (= ?W5 (or ?P14 ?E15)) (= ?E15 (not (<= 4.0 ?C))) (= ?Z5 (or ?P14 ?D15)) (= ?D15 (not (<= ?C 2.0))) (= ?T5 (= ?G5 0.0)) (= ?Q5 (or ?O14 ?C15)) (= ?C15 (not (<= 3.0 ?C))) (= ?N5 (or ?O14 ?B15)) (= ?B15 (not (<= ?C 1.0))) (= ?K5 (not (<= ?A15 1.0))) (= ?A15 (+ (~ 3.0) ?C)) (= ?I5 (= ?C 2.0)) (= ?C5 (and ?Y14 ?Z14)) (= ?Z14 (or ?N14 ?X14)) (= ?Y14 (or ?M14 ?X14)) (= ?X14 (not (<= 2.0 ?C))) (= ?Z4 (and ?V14 ?W14)) (= ?W14 (or ?N14 ?U14)) (= ?V14 (or ?M14 ?U14)) (= ?U14 (not (<= ?C 0.0))) (= ?U4 (not (<= 3.0 ?C))) (= ?F5 (not (<= ?C 1.0))) (= ?R4 (= ?C 0.0)) (= ?O4 (= ?C 4.0)) (= ?J4 (not (<= 2.0 ?C))) (= ?E4 (= ?B 1.0)) (= ?S13 (ite ?T14 0.0 ?D)) (= ?T14 (= ?D 1.0)) (= ?P3 (= ?E3 0.0)) (= ?M3 (= ?C 4.0)) (= ?K3 (= ?C 3.0)) (= ?Y2 (not (<= 4.0 ?C))) (= ?I3 (= ?C 2.0)) (= ?G3 (= ?C 1.0)) (= ?D3 (= ?C 0.0)) (= ?T2 (not (<= 3.0 ?C))) (= ?O2 (not (<= 1.0 ?C))) (= ?J2 (not (<= 2.0 ?C))) (= ?G2 (= ?X1 0.0)) (= ?D2 (not (<= ?S14 1.0))) (= ?S14 (+ (~ 3.0) ?C)) (= ?B2 (= ?C 2.0)) (= ?Z1 (= ?C 1.0)) (= ?W1 (= ?C 0.0)) (= ?R1 (not (<= 3.0 ?C))) (= ?M1 (not (<= 1.0 ?C))) (= ?H1 (not (<= 2.0 ?C))) (= ?E1 (and ?R14 ?O14)) (= ?R14 (and ?Q14 ?M14)) (= ?Q14 (and ?N14 ?P14)) (= ?P14 (= ?F 0.0)) (= ?O14 (= ?J 0.0)) (= ?N14 (= ?E 0.0)) (= ?M14 (= ?I 0.0)) (= ?B1 (not (<= 11.0 ?A))) (>= ?X ?P13) (<= ?X ?P13) (>= ?W ?O13) (<= ?W ?O13) (>= ?V ?N13) (<= ?V ?N13) (>= ?U ?M13) (<= ?U ?M13) (>= ?T ?I14) (<= ?T ?I14) (>= ?S ?H14) (<= ?S ?H14) (>= ?R ?L13) (<= ?R ?L13) (>= ?Q ?K13) (<= ?Q ?K13) (>= ?P ?J13) (<= ?P ?J13) (>= ?O ?I13) (<= ?O ?I13) (>= ?N ?H13) (<= ?N ?H13) (>= ?M ?L14) (<= ?M ?L14) (= ?F14 true) $x460005 (or (not ?F14) $x198099 $x280253 $x484671) (or (not ?C14) ?D14) (or (not ?C14) (and ?Z13 ?D14 ?E14)) (or (not ?Z13) ?A14) (or (not ?Z13) (and ?F13 ?A14 ?B14)) $x299551 (or (not ?F13) $x168090 $x181544 $x121756 $x407357 $x337594 $x404448) (or (not ?A13) (and ?B13 (not ?D13)) (and ?D13 (not ?B13))) $x248690 (or (not ?Y12) ?Z12) (or (not ?Y12) (and ?P12 ?Z12 (not ?X12))) (or (not ?V12) ?W12) (or (not ?V12) (and ?P12 ?W12 ?X12)) $x303586 (or (not ?P12) $x372658 $x212491 $x99440) (or (not ?K12) (and ?L12 (not ?N12)) (and ?N12 (not ?L12))) $x442070 (or (not ?I12) ?J12) (or (not ?I12) (and ?S11 ?J12 (not ?H12))) (or (not ?F12) ?G12) (or (not ?F12) (and ?S11 ?G12 ?H12)) $x136537 $x394385 (or (not ?N11) (and ?O11 (not ?Q11)) (and ?Q11 (not ?O11))) $x380215 $x201561 $x358390 $x416313 $x475959 (or (not ?Y10) ?Z10) (or (not ?Y10) (and ?G10 ?Z10 (not ?X10))) (or (not ?V10) ?W10) (or (not ?V10) (and ?G10 ?W10 ?X10)) (or (not ?S10) ?T10) (or (not ?S10) (and ?E10 ?T10 ?U10)) (or (not ?P10) ?Q10) (or (not ?P10) (and ?C10 ?Q10 ?R10)) (or (not ?M10) ?N10) (or (not ?M10) (and ?A10 ?N10 ?O10)) (or (not ?J10) ?K10) (or (not ?J10) (and ?Y9 ?K10 ?L10)) (or (not ?G10) ?H10) (or (not ?G10) (and ?Q9 ?H10 (not ?I10))) (or (not ?E10) ?F10) (or (not ?E10) (and ?J9 ?F10 (not ?P6))) (or (not ?C10) ?D10) (or (not ?C10) (and ?J9 ?D10 ?P6)) (or (not ?A10) ?B10) (or (not ?A10) (and ?C9 ?B10 (not ?E4))) (or (not ?Y9) ?Z9) (or (not ?Y9) (and ?C9 ?Z9 ?E4)) $x134644 $x319914 $x305083 $x200593 $x136567 $x298940 (or (not ?A9) ?B9) (or (not ?A9) (and ?P8 ?B9 (not ?Z8))) (or (not ?X8) ?Y8) (or (not ?X8) (and ?P8 ?Y8 ?Z8)) (or (not ?U8) ?V8) (or (not ?U8) (and ?D8 ?V8 ?W8)) (or (not ?R8) ?S8) (or (not ?R8) (and ?A8 ?S8 ?T8)) (or (not ?P8) ?Q8) (or (not ?P8) (and ?N7 ?Q8 (not ?O8))) (or (not ?M8) ?N8) (or (not ?M8) (and ?N7 ?N8 ?O8)) $x289115 $x125194 (or (not ?D8) ?E8) (or (not ?D8) (and ?E7 ?E8 ?F8)) (or (not ?A8) ?B8) (or (not ?A8) (and ?B7 ?B8 ?C8)) $x155842 $x395508 (or (not ?K7) ?L7) (or (not ?K7) (and ?U6 ?L7 ?M7)) (or (not ?H7) ?I7) (or (not ?H7) (and ?S6 ?I7 ?J7)) (or (not ?E7) ?F7) (or (not ?E7) (and ?Q6 ?F7 (not ?G7))) (or (not ?B7) ?C7) (or (not ?B7) (and ?N6 ?C7 (not ?D7))) (or (not ?W6) (and ?X6 (not ?Z6)) (and ?Z6 (not ?X6))) $x135030 (or (not ?U6) ?V6) (or (not ?U6) (and ?B6 ?V6 (not ?E4))) (or (not ?S6) ?T6) (or (not ?S6) (and ?B6 ?T6 ?E4)) (or (not ?Q6) ?R6) (or (not ?Q6) (and ?U5 ?R6 (not ?P6))) (or (not ?N6) ?O6) (or (not ?N6) (and ?U5 ?O6 ?P6)) (or (not ?L6) ?M6) (or (not ?L6) (and ?R5 ?M6 (not ?K6))) (or (not ?I6) ?J6) (or (not ?I6) (and ?R5 ?J6 ?K6)) $x162519 $x111134 $x274741 $x319114 (or (not ?R5) ?S5) (or (not ?R5) (and ?D5 ?S5 (not ?T5))) (or (not ?O5) ?P5) (or (not ?O5) (and ?A5 ?P5 ?Q5)) (or (not ?L5) ?M5) (or (not ?L5) (and ?X4 ?M5 ?N5)) $x133710 $x192087 (or (not ?A5) ?B5) (or (not ?A5) (and ?P4 ?B5 ?C5)) (or (not ?X4) ?Y4) (or (not ?X4) (and ?M4 ?Y4 ?Z4)) (or (not ?V4) ?W4) (or (not ?V4) (and ?K4 ?W4 (not ?U4))) (or (not ?S4) ?T4) (or (not ?S4) (and ?K4 ?T4 ?U4)) (or (not ?P4) ?Q4) (or (not ?P4) (and ?F4 ?Q4 (not ?R4))) (or (not ?M4) ?N4) (or (not ?M4) (and ?C4 ?N4 (not ?O4))) (or (not ?K4) ?L4) (or (not ?K4) (and ?Z3 ?L4 (not ?J4))) (or (not ?H4) ?I4) (or (not ?H4) (and ?Z3 ?I4 ?J4)) (or (not ?F4) ?G4) (or (not ?F4) (and ?N3 ?G4 (not ?E4))) (or (not ?C4) ?D4) (or (not ?C4) (and ?N3 ?D4 ?E4)) (or (not ?Z3) (and ?A4 (not ?B4)) (and ?B4 (not ?A4))) $x477456 $x114720 $x159495 $x299435 $x274555 (or (not ?Z2) ?A3) (or (not ?Z2) (and ?U2 ?A3 (not ?Y2))) (or (not ?W2) ?X2) (or (not ?W2) (and ?U2 ?X2 ?Y2)) (or (not ?U2) ?V2) (or (not ?U2) (and ?K2 ?V2 (not ?T2))) (or (not ?R2) ?S2) (or (not ?R2) (and ?K2 ?S2 ?T2)) (or (not ?P2) ?Q2) (or (not ?P2) (and ?H2 ?Q2 (not ?O2))) (or (not ?M2) ?N2) (or (not ?M2) (and ?H2 ?N2 ?O2)) (or (not ?K2) ?L2) (or (not ?K2) (and ?E2 ?L2 (not ?J2))) (or (not ?H2) ?I2) (or (not ?H2) (and ?E2 ?I2 ?J2)) (or (not ?E2) ?F2) (or (not ?E2) (and ?U1 ?F2 ?G2)) $x467355 $x382966 (or (not ?S1) ?T1) (or (not ?S1) (and ?I1 ?T1 (not ?R1))) (or (not ?P1) ?Q1) (or (not ?P1) (and ?I1 ?Q1 ?R1)) (or (not ?N1) ?O1) (or (not ?N1) (and ?F1 ?O1 (not ?M1))) (or (not ?K1) ?L1) (or (not ?K1) (and ?F1 ?L1 ?M1)) (or (not ?I1) ?J1) (or (not ?I1) (and ?C1 ?J1 (not ?H1))) (or (not ?F1) ?G1) (or (not ?F1) (and ?C1 ?G1 ?H1)) (or (not ?C1) ?D1) (or (not ?C1) (and ?Y ?D1 (not ?E1))) (or (not ?Y) ?A1) (or (not ?Y) (and ?Z ?A1 ?B1)) (= ?L14 (+ 1.0 ?A)))))
(=> $x279119 $x329677))))))))))))))))))))))))))))))))))))))))))))))))))))))))))))))))))))))))))))))))))))))))))))))))))))))))))))))))))))))))))))))))))
)
(assert (forall ((?A Real) (?B Real) (?C Real) (?D Real) (?E Real) (?F Real) (?G Real) (?H Real) (?I Real) (?J Real) (?K Real) (?L Real) (?M Bool) (?N Bool) (?O Bool) (?P Bool) (?Q Bool) (?R Bool) (?S Bool) (?T Bool) (?U Bool) (?V Bool) (?W Bool) (?X Bool) (?Y Bool) (?Z Bool) (?A1 Bool) (?B1 Bool) (?C1 Bool) )(let (($x394832 (|cp-rel-__UFO__0| ?A ?B ?C ?D ?E ?F ?G ?H ?I ?J ?K ?L)))
(let (($x212593 (= ?A1 (and ?B1 ?C1))))
(let (($x126496 (or (not ?M) (and ?N ?O ?P))))
(let (($x352531 (or (not ?M) ?O)))
(let (($x260849 (or (not ?X) (and ?M ?Y ?Q) (and ?N ?Z (not ?P)))))
(let (($x241821 (or (not ?X) (and ?Y (not ?Z)) (and ?Z (not ?Y)))))
(let (($x351589 (= ?X true)))
(let (($x274601 (= ?A1 true)))
(let (($x246990 (= ?P (not (<= 11.0 ?A)))))
(let (($x184687 (= ?R (= ?I 0.0))))
(let (($x470641 (= ?S (= ?E 0.0))))
(let (($x302303 (= ?T (= ?J 0.0))))
(let (($x424026 (= ?U (= ?F 0.0))))
(let (($x309883 (= ?V (and ?S ?U))))
(let (($x490247 (= ?W (and ?V ?R))))
(let (($x279047 (= ?Q (and ?W ?T))))
(let (($x369230 (= ?B1 (= ?G 0.0))))
(let (($x445310 (= ?C1 (= ?H 0.0))))
(let (($x278469 (|cp-rel-bb.i.i.i| ?A ?B ?C ?D ?E ?F ?G ?H ?I ?J ?K ?L)))
(let (($x241607 (and $x278469 $x445310 $x369230 $x279047 $x490247 $x309883 $x424026 $x302303 $x470641 $x184687 $x246990 $x274601 $x351589 $x241821 $x260849 $x352531 $x126496 $x212593)))
(=> $x241607 $x394832))))))))))))))))))))))
)
(assert (forall ((?A Real) (?B Real) (?C Real) (?D Real) (?E Real) (?F Real) (?G Real) (?H Real) (?I Real) (?J Real) (?K Real) (?L Real) (?M Bool) )(let (($x236865 (|cp-rel-__UFO__0| ?A ?B ?C ?D ?E ?F ?G ?H ?I ?J ?K ?L)))
(=> (and $x236865 (= ?M true)) $x236865)))
)
(assert (forall ((?A Real) (?B Real) (?C Real) (?D Real) (?E Real) (?F Real) (?G Real) (?H Real) (?I Real) (?J Real) (?K Real) (?L Real) (?M Bool) (?N Bool) (?O Bool) (?P Bool) (?Q Bool) (?R Bool) (?S Bool) (?T Bool) (?U Bool) (?V Bool) (?W Bool) (?X Bool) (?Y Bool) (?Z Bool) (?A1 Bool) (?B1 Bool) (?C1 Bool) )(let (($x212593 (= ?A1 (and ?B1 ?C1))))
(let (($x126496 (or (not ?M) (and ?N ?O ?P))))
(let (($x352531 (or (not ?M) ?O)))
(let (($x260849 (or (not ?X) (and ?M ?Y ?Q) (and ?N ?Z (not ?P)))))
(let (($x241821 (or (not ?X) (and ?Y (not ?Z)) (and ?Z (not ?Y)))))
(let (($x351589 (= ?X true)))
(let (($x246990 (= ?P (not (<= 11.0 ?A)))))
(let (($x184687 (= ?R (= ?I 0.0))))
(let (($x470641 (= ?S (= ?E 0.0))))
(let (($x302303 (= ?T (= ?J 0.0))))
(let (($x424026 (= ?U (= ?F 0.0))))
(let (($x309883 (= ?V (and ?S ?U))))
(let (($x490247 (= ?W (and ?V ?R))))
(let (($x279047 (= ?Q (and ?W ?T))))
(let (($x369230 (= ?B1 (= ?G 0.0))))
(let (($x445310 (= ?C1 (= ?H 0.0))))
(let (($x278469 (|cp-rel-bb.i.i.i| ?A ?B ?C ?D ?E ?F ?G ?H ?I ?J ?K ?L)))
(let (($x386600 (and $x278469 $x445310 $x369230 $x279047 $x490247 $x309883 $x424026 $x302303 $x470641 $x184687 $x246990 (not (= ?A1 true)) $x351589 $x241821 $x260849 $x352531 $x126496 $x212593)))
(=> $x386600 |cp-rel-UnifiedReturnBlock|))))))))))))))))))))
)
(assert (not cp-rel-UnifiedReturnBlock))
(check-sat)
